SPARKNaCl/why3-cvc5/sparknacl.ads_407_40_predicate_check_1.smt2
;; produced by cvc5.drv ;;
(set-logic ALL)
(set-info :smt-lib-version 2.6)
;;; generated by SMT-LIB2 driver
;;; SMT-LIB2 driver: bit-vectors, common part
;;; SMT-LIB2: integer arithmetic
;; "pow2"
(declare-fun pow2 (Int) Int)

(declare-const two_power_size_minus_one Int)

;; "two_power_size_minus_one_val"
(assert (= two_power_size_minus_one (pow2 (- 8 1))))

;; "min"
(define-fun min ((x Int) (y Int)) Int
  (ite (<= x y) x y))

;; "max"
(define-fun max ((x Int) (y Int)) Int
  (ite (<= x y) y x))

;; "Min_r"
(assert (forall ((x Int) (y Int)) (=> (<= y x) (= (min x y) y))))

;; "Max_l"
(assert (forall ((x Int) (y Int)) (=> (<= y x) (= (max x y) x))))

;; "Min_comm"
(assert (forall ((x Int) (y Int)) (= (min x y) (min y x))))

;; "Max_comm"
(assert (forall ((x Int) (y Int)) (= (max x y) (max y x))))

;; "Min_assoc"
(assert
  (forall ((x Int) (y Int) (z Int)) (= (min (min x y) z) (min x (min y z)))))

;; "Max_assoc"
(assert
  (forall ((x Int) (y Int) (z Int)) (= (max (max x y) z) (max x (max y z)))))

(declare-const two_power_size_minus_one1 Int)

;; "two_power_size_minus_one_val"
(assert (= two_power_size_minus_one1 (pow2 (- 16 1))))

(declare-sort byte 0)

;; "to_rep"
(declare-fun to_rep (byte) (_ BitVec 8))

;; "of_rep"
(declare-fun of_rep ((_ BitVec 8)) byte)

;; "inversion_axiom"
(assert
  (forall ((x byte)) (! (= (of_rep (to_rep x)) x) :pattern ((to_rep x)) )))

;; "range_axiom"
(assert true)

;; "coerce_axiom"
(assert
  (forall ((x (_ BitVec 8)))
    (! (= (to_rep (of_rep x)) x) :pattern ((to_rep (of_rep x))) )))

(declare-sort map1 0)

;; "has_bounds"
(declare-fun has_bounds (map1
  Int
  Int) Bool)

;; "get"
(declare-fun get (map1
  Int) byte)

(declare-const zero_bytes_16 map1)

(declare-const zero_bytes_32 map1)

(declare-const sigma map1)

(declare-sort gf16_normal_limb 0)

;; "to_rep"
(declare-fun to_rep1 (gf16_normal_limb) (_ BitVec 16))

;; "of_rep"
(declare-fun of_rep1 ((_ BitVec 16)) gf16_normal_limb)

;; "inversion_axiom"
(assert
  (forall ((x gf16_normal_limb))
    (! (= (of_rep1 (to_rep1 x)) x) :pattern ((to_rep1 x)) )))

;; "range_axiom"
(assert true)

;; "coerce_axiom"
(assert
  (forall ((x (_ BitVec 16)))
    (! (= (to_rep1 (of_rep1 x)) x) :pattern ((to_rep1 (of_rep1 x))) )))

(declare-sort map2 0)

;; "has_bounds"
(declare-fun has_bounds1 (map2
  Int
  Int) Bool)

;; "get"
(declare-fun get1 (map2
  Int) gf16_normal_limb)

(declare-const gf_0 map2)

(declare-sort gf32_any_limb 0)

;; "gf32_any_limb'int"
(declare-fun gf32_any_limbqtint (gf32_any_limb) Int)

;; "gf32_any_limb'axiom"
(assert
  (forall ((i gf32_any_limb))
    (and
      (<= (- 65536) (gf32_any_limbqtint i))
      (<= (gf32_any_limbqtint i) 132051011))))

;; "in_range"
(define-fun in_range ((x Int)) Bool
  (and (<= (- 65536) x) (<= x 132051011)))

;; "to_rep"
(define-fun to_rep2 ((x gf32_any_limb)) Int
  (gf32_any_limbqtint x))

;; "of_rep"
(declare-fun of_rep2 (Int) gf32_any_limb)

;; "inversion_axiom"
(assert
  (forall ((x gf32_any_limb))
    (! (= (of_rep2 (to_rep2 x)) x) :pattern ((to_rep2 x)) )))

;; "range_axiom"
(assert
  (forall ((x gf32_any_limb))
    (! (in_range (to_rep2 x)) :pattern ((to_rep2 x)) )))

;; "coerce_axiom"
(assert
  (forall ((x Int))
    (! (=> (in_range x) (= (to_rep2 (of_rep2 x)) x)) :pattern ((to_rep2
                                                                 (of_rep2 x))) )))

(declare-sort map3 0)

;; "has_bounds"
(declare-fun has_bounds2 (map3
  Int
  Int) Bool)

;; "get"
(declare-fun get2 (map3
  Int) gf32_any_limb)

;; "sparknacl__zero_bytes_16__aggregate_def"
(declare-fun sparknacl__zero_bytes_16__aggregate_def ((_ BitVec 8)) map1)

;; "sparknacl__zero_bytes_32__aggregate_def"
(declare-fun sparknacl__zero_bytes_32__aggregate_def ((_ BitVec 8)) map1)

;; "sparknacl__sigma__aggregate_def"
(declare-fun sparknacl__sigma__aggregate_def ((_ BitVec 8)
  (_ BitVec 8)
  (_ BitVec 8)
  (_ BitVec 8)
  (_ BitVec 8)
  (_ BitVec 8)
  (_ BitVec 8)
  (_ BitVec 8)
  (_ BitVec 8)
  (_ BitVec 8)
  (_ BitVec 8)
  (_ BitVec 8)
  (_ BitVec 8)
  (_ BitVec 8)
  (_ BitVec 8)
  (_ BitVec 8)) map1)

;; "in_range"
(define-fun in_range1 ((x Int)) Bool
  (and (<= 0 x) (<= x 65535)))

;; "sparknacl__gf_0__aggregate_def"
(declare-fun sparknacl__gf_0__aggregate_def ((_ BitVec 16)) map2)

;; "sparknacl__gf32_0__aggregate_def"
(declare-fun sparknacl__gf32_0__aggregate_def (Int) map3)

;; "def_axiom"
(assert
  (forall ((temp___169 (_ BitVec 8)))
    (let ((temp___170 (sparknacl__zero_bytes_16__aggregate_def temp___169)))
      (and
        (has_bounds temp___170 0 15)
        (forall ((temp___171 Int))
          (! (=>
               (and (<= 0 temp___171) (<= temp___171 15))
               (= (to_rep (get temp___170 temp___171)) temp___169)) :pattern (
          (get
            temp___170
            temp___171)) ))))))

;; "def_axiom"
(assert
  (forall ((temp___175 (_ BitVec 8)))
    (let ((temp___176 (sparknacl__zero_bytes_32__aggregate_def temp___175)))
      (and
        (has_bounds temp___176 0 31)
        (forall ((temp___177 Int))
          (! (=>
               (and (<= 0 temp___177) (<= temp___177 31))
               (= (to_rep (get temp___176 temp___177)) temp___175)) :pattern (
          (get
            temp___176
            temp___177)) ))))))

;; "def_axiom"
(assert
  (forall ((temp___187 (_ BitVec 8)) (temp___188 (_ BitVec 8)) (temp___189 (_ BitVec 8)) (temp___190 (_ BitVec 8)) (temp___191 (_ BitVec 8)) (temp___192 (_ BitVec 8)) (temp___193 (_ BitVec 8)) (temp___194 (_ BitVec 8)) (temp___195 (_ BitVec 8)) (temp___196 (_ BitVec 8)) (temp___197 (_ BitVec 8)) (temp___198 (_ BitVec 8)) (temp___199 (_ BitVec 8)) (temp___200 (_ BitVec 8)) (temp___201 (_ BitVec 8)) (temp___202 (_ BitVec 8)))
    (let ((temp___203 (sparknacl__sigma__aggregate_def
                        temp___187
                        temp___188
                        temp___189
                        temp___190
                        temp___191
                        temp___192
                        temp___193
                        temp___194
                        temp___195
                        temp___196
                        temp___197
                        temp___198
                        temp___199
                        temp___200
                        temp___201
                        temp___202)))
      (and
        (and
          (and
            (= (to_rep (get temp___203 0)) temp___187)
            (= (to_rep (get temp___203 1)) temp___188))
          (and
            (and
              (and
                (and
                  (= (to_rep (get temp___203 2)) temp___189)
                  (= (to_rep (get temp___203 3)) temp___190))
                (and
                  (= (to_rep (get temp___203 4)) temp___191)
                  (= (to_rep (get temp___203 5)) temp___192)))
              (and
                (and
                  (= (to_rep (get temp___203 6)) temp___193)
                  (= (to_rep (get temp___203 7)) temp___194))
                (= (to_rep (get temp___203 8)) temp___195)))
            (and
              (and
                (and
                  (= (to_rep (get temp___203 9)) temp___196)
                  (= (to_rep (get temp___203 10)) temp___197))
                (and
                  (= (to_rep (get temp___203 11)) temp___198)
                  (= (to_rep (get temp___203 12)) temp___199)))
              (and
                (and
                  (= (to_rep (get temp___203 13)) temp___200)
                  (= (to_rep (get temp___203 14)) temp___201))
                (= (to_rep (get temp___203 15)) temp___202)))))
        (=>
          (and
            (and (and (<= 0 0) (<= 0 15)) (and (<= 0 1) (<= 1 15)))
            (and
              (and
                (and
                  (and (and (<= 0 2) (<= 2 15)) (and (<= 0 3) (<= 3 15)))
                  (and (and (<= 0 4) (<= 4 15)) (and (<= 0 5) (<= 5 15))))
                (and
                  (and (and (<= 0 6) (<= 6 15)) (and (<= 0 7) (<= 7 15)))
                  (and (<= 0 8) (<= 8 15))))
              (and
                (and
                  (and (and (<= 0 9) (<= 9 15)) (and (<= 0 10) (<= 10 15)))
                  (and (and (<= 0 11) (<= 11 15)) (and (<= 0 12) (<= 12 15))))
                (and
                  (and (and (<= 0 13) (<= 13 15)) (and (<= 0 14) (<= 14 15)))
                  (and (<= 0 15) (<= 15 15))))))
          (has_bounds temp___203 0 15))))))

;; "def_axiom"
(assert
  (forall ((temp___213 (_ BitVec 16)))
    (let ((temp___214 (sparknacl__gf_0__aggregate_def temp___213)))
      (and
        (has_bounds1 temp___214 0 15)
        (forall ((temp___215 Int))
          (! (=>
               (and (<= 0 temp___215) (<= temp___215 15))
               (= (to_rep1 (get1 temp___214 temp___215)) temp___213)) :pattern (
          (get1
            temp___214
            temp___215)) ))))))

(declare-const rliteral gf32_any_limb)

;; "rliteral_axiom"
(assert (= (gf32_any_limbqtint rliteral) 0))

;; "def_axiom"
(assert
  (forall ((temp___220 Int))
    (let ((temp___221 (sparknacl__gf32_0__aggregate_def temp___220)))
      (and
        (has_bounds2 temp___221 0 15)
        (forall ((temp___222 Int))
          (! (=>
               (and (<= 0 temp___222) (<= temp___222 15))
               (= (get2 temp___221 temp___222) rliteral)) :pattern ((get2
                                                                    temp___221
                                                                    temp___222)) ))))))

;; Goal "def'vc"
;; File "sparknacl.ads", line 32, characters 0-0
(assert
  (not
  (forall ((temp___1430 map1))
    (=>
      (and
        (and
          (has_bounds temp___1430 0 15)
          (forall ((temp___172 Int))
            (! (=>
                 (and (<= 0 temp___172) (<= temp___172 15))
                 (= (to_rep (get temp___1430 temp___172)) #x00)) :pattern (
            (get
              temp___1430
              temp___172)) )))
        (= temp___1430 (sparknacl__zero_bytes_16__aggregate_def #x00)))
      (=>
        (= temp___1430 zero_bytes_16)
        (=>
          (has_bounds zero_bytes_16 0 15)
          (forall ((temp___1434 map1))
            (=>
              (and
                (and
                  (has_bounds temp___1434 0 31)
                  (forall ((temp___178 Int))
                    (! (=>
                         (and (<= 0 temp___178) (<= temp___178 31))
                         (= (to_rep (get temp___1434 temp___178)) #x00)) :pattern (
                    (get
                      temp___1434
                      temp___178)) )))
                (= temp___1434 (sparknacl__zero_bytes_32__aggregate_def #x00)))
              (=>
                (= temp___1434 zero_bytes_32)
                (=>
                  (has_bounds zero_bytes_32 0 31)
                  (forall ((temp___1407 map1))
                    (=>
                      (and
                        (and
                          (and
                            (and
                              (= (to_rep (get temp___1407 0)) #x65)
                              (= (to_rep (get temp___1407 1)) #x78))
                            (and
                              (and
                                (and
                                  (and
                                    (= (to_rep (get temp___1407 2)) #x70)
                                    (= (to_rep (get temp___1407 3)) #x61))
                                  (and
                                    (= (to_rep (get temp___1407 4)) #x6E)
                                    (= (to_rep (get temp___1407 5)) #x64)))
                                (and
                                  (and
                                    (= (to_rep (get temp___1407 6)) #x20)
                                    (= (to_rep (get temp___1407 7)) #x33))
                                  (= (to_rep (get temp___1407 8)) #x32)))
                              (and
                                (and
                                  (and
                                    (= (to_rep (get temp___1407 9)) #x2D)
                                    (= (to_rep (get temp___1407 10)) #x62))
                                  (and
                                    (= (to_rep (get temp___1407 11)) #x79)
                                    (= (to_rep (get temp___1407 12)) #x74)))
                                (and
                                  (and
                                    (= (to_rep (get temp___1407 13)) #x65)
                                    (= (to_rep (get temp___1407 14)) #x20))
                                  (= (to_rep (get temp___1407 15)) #x6B)))))
                          (has_bounds temp___1407 0 15))
                        (= temp___1407 (sparknacl__sigma__aggregate_def
                                         #x65
                                         #x78
                                         #x70
                                         #x61
                                         #x6E
                                         #x64
                                         #x20
                                         #x33
                                         #x32
                                         #x2D
                                         #x62
                                         #x79
                                         #x74
                                         #x65
                                         #x20
                                         #x6B)))
                      (=>
                        (= temp___1407 sigma)
                        (=>
                          (has_bounds sigma 0 15)
                          (forall ((temp___1411 map2))
                            (=>
                              (and
                                (and
                                  (has_bounds1 temp___1411 0 15)
                                  (forall ((temp___216 Int))
                                    (! (=>
                                         (and
                                           (<= 0 temp___216)
                                           (<= temp___216 15))
                                         (= (to_rep1
                                              (get1 temp___1411 temp___216)) #x0000)) :pattern (
                                    (get1
                                      temp___1411
                                      temp___216)) )))
                                (= temp___1411 (sparknacl__gf_0__aggregate_def
                                                 #x0000)))
                              (=>
                                (= temp___1411 gf_0)
                                (=>
                                  (has_bounds1 gf_0 0 15)
                                  (forall ((temp___1415 map3))
                                    (=>
                                      (and
                                        (and
                                          (has_bounds2 temp___1415 0 15)
                                          (forall ((temp___223 Int))
                                            (! (=>
                                                 (and
                                                   (<= 0 temp___223)
                                                   (<= temp___223 15))
                                                 (= (get2
                                                      temp___1415
                                                      temp___223) rliteral)) :pattern (
                                            (get2
                                              temp___1415
                                              temp___223)) )))
                                        (= temp___1415 (sparknacl__gf32_0__aggregate_def
                                                         0)))
                                      (=>
                                        (forall ((i Int))
                                          (=>
                                            (and (<= 0 i) (<= i 15))
                                            (in_range1
                                              (to_rep2 (get2 temp___1415 i)))))
                                        (forall ((i Int))
                                          (=>
                                            (and (<= 0 i) (<= i 15))
                                            (<= 0 (to_rep2
                                                    (get2 temp___1415 i))))))))))))))))))))))))))

(check-sat)
